c Output_time 26.03.2020 18:15:12_+0100 1585242912532684999
c ** Program information **
c program_name                          "QBRG_debug"
c version                               "0.3.20"
c date                                  "25.3.2020"
c gid_id                                "673970833836058123f633335630c185360d632e"
c author                                "Oliver Kullmann"
c url                                   "https://github.com/OKullmann/oklibrary/blob/master/Satisfiability/Transformers/Generators/Random/QBRG.cpp"
c ** Machine information **
c machine_name                          "chyna-Lenovo-G50-70"
c bogomips                              3791.08
c ** Compilation information **
c compiler_version                      "g++ 7.5.0"
c compilation_date                      "Mar_26_2020 11:16:30"
c compilation_options                   "--std=c++17 -pedantic -fmax-errors=5 -Wall -Wextra -g -D_GLIBCXX_DEBUG"
c NDEBUG                                0
c OPTIMIZE                              0
c ** Parameters **
c command-line                          "./QBRG_debug" "a40 e40 a40 40" "243*1,1|2-2,1|3-3,1|4-4,1" "" "1,t" ""
c output                                "QuBlRaGe_160_243_1585242912532519767.qdimacs"
c options                               "filtered,renamed"
c num_quantifier_blocks                 4
c  quantifier_blocks                    1:a1-40 2:e41-80 3:a81-120 4:e121-160
c num_clause-blocks                     1
c  clause-blocks                        243 * {1-40,1,1/2} | {41-80,1,1/2} | {81-120,1,1/2} | {121-160,1,1/2}
c num_e-seeds                           37+2=39
c  e-seeds                              1 0 1 0 5 160 2 40 0 40 1 40 0 40 1 243 4 1 1 1 1 2 2 2 1 1 2 3 3 1 1 2 4 4 1 1 2 1 1585242912532519152
p cnf 160 243
a 1 2 3 4 5 6 7 8 9 10 11 12 13 14 15 16 17 18 19 20 21 22 23 24 25 26 27 28 29 30 31 32 33 34 35 36 37 38 39 40 0
e 41 42 43 44 45 46 47 48 49 50 51 52 53 54 55 56 57 58 59 60 61 62 63 64 65 66 67 68 69 70 71 72 73 74 75 76 77 78 79 80 0
a 81 82 83 84 85 86 87 88 89 90 91 92 93 94 95 96 97 98 99 100 101 102 103 104 105 106 107 108 109 110 111 112 113 114 115 116 117 118 119 120 0
e 121 122 123 124 125 126 127 128 129 130 131 132 133 134 135 136 137 138 139 140 141 142 143 144 145 146 147 148 149 150 151 152 153 154 155 156 157 158 159 160 0
8 -50 -90 -121 0
-5 -75 99 -121 0
-10 47 -100 -121 0
6 79 -106 -121 0
-19 41 -112 -121 0
-32 -47 -118 -121 0
-12 61 82 121 0
26 57 -91 121 0
31 54 115 121 0
22 55 -91 -122 0
27 56 -105 -122 0
-36 76 111 -122 0
-21 62 -112 -122 0
-29 79 -115 -122 0
-21 67 82 122 0
5 -62 -88 122 0
-26 52 -89 122 0
-16 -61 103 122 0
-6 69 -95 -123 0
38 56 104 -123 0
7 71 -116 -123 0
15 -47 -82 123 0
35 58 90 123 0
-14 74 -93 123 0
-7 74 -99 123 0
13 51 102 123 0
-15 -50 109 124 0
-18 -73 81 -125 0
11 75 89 -125 0
-5 -47 85 125 0
23 60 86 125 0
25 42 106 125 0
39 -54 107 125 0
-4 71 109 125 0
18 65 116 -126 0
-24 -46 85 126 0
2 67 89 126 0
-35 48 90 126 0
-34 42 -100 126 0
36 56 -87 -127 0
-24 71 -91 -127 0
29 -75 -93 -127 0
-28 80 -101 -127 0
21 -69 112 127 0
-5 45 -115 127 0
-11 -71 87 -128 0
3 -78 -93 -128 0
25 54 -104 -128 0
-25 67 109 -128 0
-35 48 103 128 0
-10 -47 -116 128 0
-12 52 118 128 0
31 -74 120 128 0
-1 -41 -91 -129 0
16 -64 -92 129 0
-20 -49 103 129 0
2 -75 103 129 0
27 69 105 129 0
-29 75 -94 -130 0
-7 52 84 130 0
32 67 85 130 0
-34 65 -90 130 0
35 67 114 130 0
-13 -56 -96 -131 0
33 -66 99 -131 0
25 -64 120 -131 0
15 78 98 131 0
32 60 -83 -132 0
-26 44 83 -132 0
-15 67 97 -132 0
-21 69 -99 -132 0
17 74 99 -132 0
-39 -80 100 -132 0
-18 -55 -104 -132 0
-23 70 -83 132 0
-23 57 111 132 0
-36 -52 113 132 0
-24 -69 -109 -133 0
-4 69 92 133 0
8 75 93 133 0
-13 59 111 133 0
-20 -67 -117 -134 0
-3 -80 -95 134 0
-37 64 105 134 0
-30 -76 82 -135 0
20 67 101 -135 0
37 44 104 -135 0
-32 63 103 135 0
-5 -73 -103 -136 0
12 79 111 -136 0
-6 76 113 136 0
14 54 -87 -137 0
32 72 -81 137 0
-27 -66 82 137 0
7 -58 -89 137 0
-22 -46 -114 137 0
-11 -70 -114 137 0
-16 47 96 -138 0
-23 62 87 138 0
-1 -62 98 138 0
38 70 -102 138 0
-1 62 -104 138 0
-35 -60 -107 138 0
28 -70 -117 138 0
25 65 118 138 0
-35 70 -102 -139 0
-36 -42 -119 139 0
-21 45 87 -140 0
-9 76 90 -140 0
21 -47 -118 -140 0
-22 -65 -118 -140 0
-10 -78 -89 140 0
-10 59 -99 140 0
30 76 -108 140 0
-40 -43 -110 140 0
39 -41 114 140 0
25 -62 117 140 0
14 44 -85 -141 0
-29 50 -86 -141 0
-1 -67 91 -141 0
-38 -43 96 -141 0
-11 -70 107 -141 0
-31 78 -109 -141 0
-35 -67 88 141 0
10 46 99 141 0
3 44 -107 141 0
-28 -47 83 -142 0
4 -46 -86 -142 0
39 -61 91 -142 0
13 -43 -99 -142 0
-7 42 -111 -142 0
9 76 -114 -142 0
28 43 -118 -142 0
-38 -48 -88 142 0
19 75 104 142 0
26 67 -112 142 0
-29 62 -86 -143 0
12 43 -91 -143 0
-32 -73 110 -143 0
-18 54 92 143 0
-31 49 111 143 0
22 75 82 -144 0
-27 -77 -107 -144 0
35 -77 83 144 0
-3 -65 103 144 0
-37 46 110 144 0
13 64 87 -145 0
-19 -51 89 -145 0
1 62 -95 -145 0
-33 -46 111 145 0
-12 -49 119 145 0
-9 -71 -87 -146 0
25 75 93 -146 0
23 49 -101 -146 0
28 -74 -102 -146 0
-14 76 -91 146 0
35 60 92 146 0
-39 64 98 146 0
20 59 101 146 0
29 77 110 146 0
34 77 114 146 0
12 61 -115 146 0
-7 78 90 -147 0
27 73 105 -147 0
-18 -64 -106 -147 0
-24 -56 -115 -147 0
5 -46 95 147 0
24 79 96 147 0
-7 -77 -99 147 0
-8 76 -88 -148 0
4 -73 85 148 0
35 53 -96 148 0
-16 -48 -101 -149 0
11 50 -116 -149 0
-10 59 116 -149 0
-17 57 92 149 0
36 -41 -102 149 0
-29 52 -116 149 0
-21 50 82 -150 0
-30 -78 -84 -150 0
-13 57 -89 -150 0
23 -71 98 -150 0
-4 -80 83 150 0
28 73 -90 150 0
12 -76 111 150 0
39 59 -92 -151 0
-34 -63 93 -151 0
5 -74 120 -151 0
31 75 -97 151 0
-23 -50 97 151 0
32 -65 -108 151 0
28 -78 92 -152 0
-3 66 -105 -152 0
-26 -80 -100 152 0
11 68 110 152 0
19 78 110 152 0
-15 67 -118 152 0
-20 -64 86 -153 0
8 -77 105 -153 0
30 -45 -115 -153 0
14 69 -117 -153 0
30 -69 117 153 0
-37 -50 -90 -154 0
-31 80 101 -154 0
-20 64 102 -154 0
6 56 -109 -154 0
25 -65 -109 -154 0
-34 -66 -112 -154 0
-15 -77 -113 -154 0
-26 75 -116 -154 0
28 49 -81 154 0
-6 -50 84 154 0
-28 54 -90 154 0
-9 46 -117 155 0
-29 -72 -120 155 0
-16 48 100 -156 0
5 52 -113 -156 0
-8 -41 -117 -156 0
24 -57 97 156 0
33 -43 99 156 0
-18 -43 -118 156 0
22 50 100 -157 0
14 -67 106 -157 0
32 72 116 -157 0
-26 -75 -86 -158 0
-35 48 -97 -158 0
-35 -73 -97 -158 0
11 -54 -99 -158 0
5 -45 100 -158 0
-3 -67 -112 -158 0
36 77 -119 -158 0
32 72 89 158 0
38 62 93 158 0
-9 61 -119 158 0
-17 -44 -89 -159 0
-37 44 90 -159 0
-25 51 -99 -159 0
4 50 -102 -159 0
-14 56 -119 -159 0
25 54 -81 159 0
23 -67 -82 160 0
37 -48 -95 160 0
2 -56 -110 160 0
